TOUR_SECTION
1
171
166
193
93
131
31
19
71
196
34
3
103
128
73
10
7
181
83
94
9
163
187
81
98
110
200
79
133
52
90
195
65
134
157
67
151
44
61
66
146
49
155
72
80
37
125
170
120
62
47
199
153
118
95
150
50
161
162
194
104
190
111
136
168
56
41
64
152
58
78
85
48
18
45
46
68
24
43
36
174
109
145
17
169
13
117
97
185
142
198
119
84
160
25
182
88
172
106
158
51
140
92
189
129
123
159
53
201
100
70
102
74
77
35
164
4
40
20
191
101
180
5
60
30
38
135
138
2
175
6
179
124
167
173
75
15
11
63
26
149
188
105
16
86
108
91
96
113
148
127
99
22
112
121
197
21
28
87
76
114
115
141
154
176
137
55
156
12
165
143
147
183
42
57
184
186
69
89
14
126
39
177
54
130
132
8
33
139
144
27
59
29
192
82
107
116
32
178
23
122
-1
EOF